n = 50;
C = 7231;
w = [206,391,309,397,434,414,69,335,357,458,84,267,485,185,79,199,34,280,261,328,144,475,429,133,365,395,407,88,342,388,110,466,351,228,468,160,44,424,89,31,398,367,364,348,377,488,184,168,360,299];
p = [206,391,309,397,434,414,69,335,357,458,84,267,485,185,79,199,34,280,261,328,144,475,429,133,365,395,407,88,342,388,110,466,351,228,468,160,44,424,89,31,398,367,364,348,377,488,184,168,360,299];
